;; translated from ./ctigar/xy10.c.vmt
;; original benchmark available at: https://es-static.fbk.eu/people/griggio/ic3ia/index.html
;; author: Alberto Griggio <griggio@fbk.eu>
(set-logic HORN)
(declare-fun state (Bool Bool Bool Bool Int Int Int) Bool)
(assert (forall ((|.s.0| Bool) (|.s.1| Bool) (|.s.0.next| Bool) (|.s.1.next| Bool) (|.s.2.next| Bool) (|.s.3.next| Bool) (|main.x.next| Int) (|main.x| Int) (|main.y.next| Int) (|main.y| Int) (|main.z.next| Int) (|main.z| Int) (|.inputVar.0| Int) (|.s.3| Bool) (|.s.2| Bool)) (=> (let ((.def_17 (not .s.3)))
(let ((.def_14 (not .s.2)))
(let ((.def_10 (not .s.1)))
(let ((.def_12 (and .def_10 .s.0)))
(let ((.def_15 (and .def_12 .def_14)))
(let ((.def_18 (and .def_15 .def_17)))
.def_18)))))) (state |.s.1| |.s.0| |.s.2| |.s.3| |main.x| |main.y| |main.z|))))
(assert (forall ((|.s.0| Bool) (|.s.1| Bool) (|.s.0.next| Bool) (|.s.1.next| Bool) (|.s.2.next| Bool) (|.s.3.next| Bool) (|main.x.next| Int) (|main.x| Int) (|main.y.next| Int) (|main.y| Int) (|main.z.next| Int) (|main.z| Int) (|.inputVar.0| Int) (|.s.3| Bool) (|.s.2| Bool)) (=> (and (state |.s.1| |.s.0| |.s.2| |.s.3| |main.x| |main.y| |main.z|) (let ((.def_43 (not .s.0)))
(let ((.def_10 (not .s.1)))
(let ((.def_44 (and .def_10 .def_43)))
(let ((.def_14 (not .s.2)))
(let ((.def_45 (and .def_14 .def_44)))
(let ((.def_17 (not .s.3)))
(let ((.def_156 (and .def_17 .def_45)))
(let ((.def_157 (not .def_156)))
(let ((.def_49 (not .s.0.next)))
(let ((.def_22 (not .s.1.next)))
(let ((.def_50 (and .def_22 .def_49)))
(let ((.def_26 (not .s.2.next)))
(let ((.def_51 (and .def_26 .def_50)))
(let ((.def_48 (not .s.3.next)))
(let ((.def_52 (and .def_48 .def_51)))
(let ((.def_32 (= main.x main.x.next)))
(let ((.def_53 (and .def_32 .def_52)))
(let ((.def_36 (= main.y main.y.next)))
(let ((.def_54 (and .def_36 .def_53)))
(let ((.def_40 (= main.z main.z.next)))
(let ((.def_55 (and .def_40 .def_54)))
(let ((.def_158 (or .def_55 .def_157)))
(let ((.def_151 (= main.x.next 0)))
(let ((.def_94 (and .s.1.next .def_49)))
(let ((.def_95 (and .def_26 .def_94)))
(let ((.def_96 (and .def_48 .def_95)))
(let ((.def_152 (and .def_96 .def_151)))
(let ((.def_150 (= main.y.next 0)))
(let ((.def_153 (and .def_150 .def_152)))
(let ((.def_154 (and .def_40 .def_153)))
(let ((.def_12 (and .def_10 .s.0)))
(let ((.def_15 (and .def_12 .def_14)))
(let ((.def_18 (and .def_15 .def_17)))
(let ((.def_149 (not .def_18)))
(let ((.def_155 (or .def_149 .def_154)))
(let ((.def_159 (and .def_155 .def_158)))
(let ((.def_143 (and .s.2.next .def_94)))
(let ((.def_144 (and .def_48 .def_143)))
(let ((.def_145 (and .def_32 .def_144)))
(let ((.def_146 (and .def_36 .def_145)))
(let ((.def_147 (and .def_40 .def_146)))
(let ((.def_131 (= .inputVar.0 0)))
(let ((.def_140 (not .def_131)))
(let ((.def_66 (and .s.1 .def_43)))
(let ((.def_127 (and .def_14 .def_66)))
(let ((.def_128 (and .def_17 .def_127)))
(let ((.def_141 (and .def_128 .def_140)))
(let ((.def_142 (not .def_141)))
(let ((.def_148 (or .def_142 .def_147)))
(let ((.def_160 (and .def_148 .def_159)))
(let ((.def_84 (and .s.1.next .s.0.next)))
(let ((.def_134 (and .def_26 .def_84)))
(let ((.def_135 (and .def_48 .def_134)))
(let ((.def_136 (and .def_32 .def_135)))
(let ((.def_137 (and .def_36 .def_136)))
(let ((.def_138 (and .def_40 .def_137)))
(let ((.def_132 (and .def_128 .def_131)))
(let ((.def_133 (not .def_132)))
(let ((.def_139 (or .def_133 .def_138)))
(let ((.def_161 (and .def_139 .def_160)))
(let ((.def_121 (and .s.2.next .def_50)))
(let ((.def_122 (and .def_48 .def_121)))
(let ((.def_116 (* (- 1) main.x.next)))
(let ((.def_117 (+ main.x .def_116)))
(let ((.def_120 (= .def_117 (- 10))))
(let ((.def_123 (and .def_120 .def_122)))
(let ((.def_124 (and .def_36 .def_123)))
(let ((.def_125 (and .def_40 .def_124)))
(let ((.def_57 (and .s.1 .s.0)))
(let ((.def_113 (and .def_14 .def_57)))
(let ((.def_114 (and .def_17 .def_113)))
(let ((.def_115 (not .def_114)))
(let ((.def_126 (or .def_115 .def_125)))
(let ((.def_162 (and .def_126 .def_161)))
(let ((.def_24 (and .def_22 .s.0.next)))
(let ((.def_107 (and .def_24 .s.2.next)))
(let ((.def_108 (and .def_48 .def_107)))
(let ((.def_104 (* (- 1) main.y.next)))
(let ((.def_105 (+ main.y .def_104)))
(let ((.def_106 (= .def_105 (- 1))))
(let ((.def_109 (and .def_106 .def_108)))
(let ((.def_110 (and .def_32 .def_109)))
(let ((.def_111 (and .def_40 .def_110)))
(let ((.def_101 (and .s.2 .def_44)))
(let ((.def_102 (and .def_17 .def_101)))
(let ((.def_103 (not .def_102)))
(let ((.def_112 (or .def_103 .def_111)))
(let ((.def_163 (and .def_112 .def_162)))
(let ((.def_97 (and .def_32 .def_96)))
(let ((.def_98 (and .def_36 .def_97)))
(let ((.def_99 (and .def_40 .def_98)))
(let ((.def_91 (and .def_12 .s.2)))
(let ((.def_92 (and .def_17 .def_91)))
(let ((.def_93 (not .def_92)))
(let ((.def_100 (or .def_93 .def_99)))
(let ((.def_164 (and .def_100 .def_163)))
(let ((.def_85 (and .s.2.next .def_84)))
(let ((.def_86 (and .def_48 .def_85)))
(let ((.def_87 (and .def_32 .def_86)))
(let ((.def_88 (and .def_36 .def_87)))
(let ((.def_89 (and .def_40 .def_88)))
(let ((.def_75 (<= main.x main.z)))
(let ((.def_76 (not .def_75)))
(let ((.def_71 (* (- 1) main.z)))
(let ((.def_72 (+ main.y .def_71)))
(let ((.def_73 (<= 1 .def_72)))
(let ((.def_74 (not .def_73)))
(let ((.def_77 (or .def_74 .def_76)))
(let ((.def_67 (and .s.2 .def_66)))
(let ((.def_68 (and .def_17 .def_67)))
(let ((.def_82 (and .def_68 .def_77)))
(let ((.def_83 (not .def_82)))
(let ((.def_90 (or .def_83 .def_89)))
(let ((.def_165 (and .def_90 .def_164)))
(let ((.def_78 (not .def_77)))
(let ((.def_79 (and .def_68 .def_78)))
(let ((.def_80 (not .def_79)))
(let ((.def_27 (and .def_24 .def_26)))
(let ((.def_29 (and .def_27 .s.3.next)))
(let ((.def_33 (and .def_29 .def_32)))
(let ((.def_37 (and .def_33 .def_36)))
(let ((.def_41 (and .def_37 .def_40)))
(let ((.def_81 (or .def_41 .def_80)))
(let ((.def_166 (and .def_81 .def_165)))
(let ((.def_61 (and .s.3.next .def_51)))
(let ((.def_62 (and .def_32 .def_61)))
(let ((.def_63 (and .def_36 .def_62)))
(let ((.def_64 (and .def_40 .def_63)))
(let ((.def_58 (and .s.2 .def_57)))
(let ((.def_59 (and .def_17 .def_58)))
(let ((.def_60 (not .def_59)))
(let ((.def_65 (or .def_60 .def_64)))
(let ((.def_167 (and .def_65 .def_166)))
(let ((.def_46 (and .s.3 .def_45)))
(let ((.def_47 (not .def_46)))
(let ((.def_56 (or .def_47 .def_55)))
(let ((.def_168 (and .def_56 .def_167)))
(let ((.def_19 (and .def_15 .s.3)))
(let ((.def_20 (not .def_19)))
(let ((.def_42 (or .def_20 .def_41)))
(let ((.def_169 (and .def_42 .def_168)))
.def_169)))))))))))))))))))))))))))))))))))))))))))))))))))))))))))))))))))))))))))))))))))))))))))))))))))))))))))))))))))))))))))))))))))))))))))))) (state |.s.1.next| |.s.0.next| |.s.2.next| |.s.3.next| |main.x.next| |main.y.next| |main.z.next|))))
(assert (forall ((|.s.0| Bool) (|.s.1| Bool) (|.s.0.next| Bool) (|.s.1.next| Bool) (|.s.2.next| Bool) (|.s.3.next| Bool) (|main.x.next| Int) (|main.x| Int) (|main.y.next| Int) (|main.y| Int) (|main.z.next| Int) (|main.z| Int) (|.inputVar.0| Int) (|.s.3| Bool) (|.s.2| Bool)) (=> (state |.s.1| |.s.0| |.s.2| |.s.3| |main.x| |main.y| |main.z|) (let ((.def_14 (not .s.2)))
(let ((.def_10 (not .s.1)))
(let ((.def_12 (and .def_10 .s.0)))
(let ((.def_15 (and .def_12 .def_14)))
(let ((.def_19 (and .def_15 .s.3)))
(let ((.def_20 (not .def_19)))
.def_20)))))))))
(check-sat)
